
Gurobi 9.0.1 (mac64, Python) logging started Sun Feb  2 12:09:55 2020

Set parameter LogFile to value gurobi.log

Gurobi 9.0.1 (mac64, Python) logging started Sun Feb  2 12:11:10 2020

Set parameter LogFile to value gurobi.log

Gurobi 9.0.1 (mac64, Python) logging started Mon Feb  3 11:56:46 2020

Set parameter LogFile to value gurobi.log

Gurobi 9.0.1 (mac64, Python) logging started Mon Feb  3 11:57:11 2020

Using license file /Users/quannguyen/gurobi.lic
Set parameter LogFile to value gurobi.log
Academic license - for non-commercial use only
